(declare-fun var0 () String)
(assert (str.in.re var0 (re.++ (re.* (re.+ (str.to.re "9"))) (re.++ (re.union (re.union (str.to.re "66") (str.to.re "77")) (re.* (str.to.re "8"))) (re.++ (re.+ (re.+ (str.to.re "5"))) (re.++ (re.+ (re.* (str.to.re "4"))) (re.++ (re.union (re.+ (str.to.re "2")) (re.* (str.to.re "3"))) (re.++ (re.* (re.union (str.to.re "000") (str.to.re "111"))) (re.++ (re.union (re.+ (str.to.re "||")) (re.union (str.to.re "}") (str.to.re "~"))) (re.++ (re.union (re.union (str.to.re "_") (str.to.re "`")) (re.+ (str.to.re "{{"))) (re.++ (re.+ (re.+ (str.to.re "^^"))) (re.++ (re.union (re.union (str.to.re "[[") (str.to.re "\\")) (re.+ (str.to.re "]"))) (re.++ (re.* (re.+ (str.to.re "@@"))) (re.++ (re.* (re.+ (str.to.re "?"))) (re.++ (re.+ (re.+ (str.to.re ">>>"))) (re.++ (re.union (re.+ (str.to.re ";")) (re.union (str.to.re "<<") (str.to.re "=="))) (re.++ (re.union (re.union (str.to.re "--") (str.to.re "...")) (re.union (str.to.re "/") (str.to.re ":"))) (re.++ (re.* (re.union (str.to.re "+++") (str.to.re ",,"))) (re.++ (re.* (re.+ (str.to.re "***"))) (re.++ (re.+ (re.union (str.to.re "(((") (str.to.re "))"))) (re.++ (re.union (re.union (str.to.re "%%") (str.to.re "&")) (re.+ (str.to.re "'"))) (re.++ (re.* (re.union (str.to.re "#") (str.to.re "$$$"))) (re.++ (re.* (re.union (str.to.re "!!!") (str.to.re """"""""))) (re.++ (re.+ (re.+ (str.to.re "ZZ"))) (re.++ (re.union (re.* (str.to.re "XXX")) (re.+ (str.to.re "YYY"))) (re.++ (re.+ (re.+ (str.to.re "WWW"))) (re.++ (re.* (re.* (str.to.re "V"))) (re.++ (re.* (re.* (str.to.re "UU"))) (re.++ (re.* (re.union (str.to.re "SSS") (str.to.re "T"))) (re.++ (re.+ (re.+ (str.to.re "R"))) (re.++ (re.+ (re.union (str.to.re "P") (str.to.re "QQ"))) (re.++ (re.union (re.* (str.to.re "NN")) (re.+ (str.to.re "O"))) (re.++ (re.+ (re.union (str.to.re "L") (str.to.re "MM"))) (re.++ (re.+ (re.union (str.to.re "J") (str.to.re "K"))) (re.++ (re.union (re.+ (str.to.re "HHH")) (re.+ (str.to.re "III"))) (re.++ (re.+ (re.union (str.to.re "FFF") (str.to.re "GGG"))) (re.++ (re.* (re.+ (str.to.re "EEE"))) (re.++ (re.union (re.union (str.to.re "B") (str.to.re "CCC")) (re.* (str.to.re "D"))) (re.++ (re.* (re.* (str.to.re "AAA"))) (re.++ (re.* (re.union (str.to.re "y") (str.to.re "zzz"))) (re.++ (re.* (re.* (str.to.re "xxx"))) (re.++ (re.+ (re.* (str.to.re "ww"))) (re.++ (re.* (re.+ (str.to.re "vvv"))) (re.++ (re.* (re.* (str.to.re "uuu"))) (re.++ (re.* (re.union (str.to.re "sss") (str.to.re "t"))) (re.++ (re.* (re.union (str.to.re "q") (str.to.re "r"))) (re.++ (re.union (re.union (str.to.re "nnn") (str.to.re "oo")) (re.+ (str.to.re "ppp"))) (re.++ (re.union (re.* (str.to.re "l")) (re.+ (str.to.re "mm"))) (re.++ (re.union (re.* (str.to.re "jj")) (re.* (str.to.re "kk"))) (re.++ (re.union (re.union (str.to.re "g") (str.to.re "hh")) (re.+ (str.to.re "iii"))) (re.++ (re.union (re.+ (str.to.re "d")) (re.union (str.to.re "e") (str.to.re "f"))) (re.++ (re.* (re.+ (str.to.re "ccc"))) (re.++ (re.* (re.+ (str.to.re "b"))) (re.++ (re.union (re.+ (str.to.re "999")) (re.* (str.to.re "aaa"))) (re.++ (re.union (re.union (str.to.re "5") (str.to.re "666")) (re.union (str.to.re "777") (str.to.re "88"))) (re.++ (re.+ (re.+ (str.to.re "4"))) (re.++ (re.* (re.+ (str.to.re "33"))) (re.++ (re.* (re.* (str.to.re "222"))) (re.++ (re.+ (re.+ (str.to.re "111"))) (re.++ (re.union (re.+ (str.to.re "}}")) (re.union (str.to.re "~") (str.to.re "000"))) (re.++ (re.+ (re.union (str.to.re "{") (str.to.re "|"))) (re.++ (re.union (re.+ (str.to.re "^^")) (re.union (str.to.re "___") (str.to.re "`"))) (re.++ (re.+ (re.union (str.to.re "\\") (str.to.re "]]]"))) (re.++ (re.+ (re.+ (str.to.re "[[["))) (re.++ (re.+ (re.+ (str.to.re "@@@"))) (re.++ (re.union (re.+ (str.to.re ">>>")) (re.+ (str.to.re "?"))) (re.++ (re.* (re.union (str.to.re "<<") (str.to.re "==="))) (re.++ (re.union (re.* (str.to.re "///")) (re.union (str.to.re ":::") (str.to.re ";;;"))) (re.++ (re.union (re.union (str.to.re ",,") (str.to.re "--")) (re.+ (str.to.re ".."))) (re.++ (re.+ (re.* (str.to.re "++"))) (re.++ (re.* (re.+ (str.to.re "***"))) (re.++ (re.union (re.* (str.to.re "(((")) (re.+ (str.to.re "))"))) (re.++ (re.union (re.+ (str.to.re "&&&")) (re.* (str.to.re "'"))) (re.++ (re.* (re.* (str.to.re "%"))) (re.++ (re.+ (re.* (str.to.re "$"))) (re.++ (re.* (re.union (str.to.re """""""") (str.to.re "##"))) (re.++ (re.union (re.union (str.to.re "XX") (str.to.re "YYY")) (re.union (str.to.re "ZZZ") (str.to.re "!!"))) (re.++ (re.+ (re.union (str.to.re "V") (str.to.re "W"))) (re.++ (re.* (re.* (str.to.re "U"))) (re.++ (re.+ (re.union (str.to.re "SSS") (str.to.re "TTT"))) (re.++ (re.union (re.* (str.to.re "Q")) (re.+ (str.to.re "RR"))) (re.++ (re.+ (re.+ (str.to.re "P"))) (re.++ (re.+ (re.+ (str.to.re "O"))) (re.++ (re.union (re.+ (str.to.re "M")) (re.* (str.to.re "N"))) (re.++ (re.* (re.union (str.to.re "KK") (str.to.re "LL"))) (re.++ (re.* (re.+ (str.to.re "J"))) (re.++ (re.+ (re.* (str.to.re "II"))) (re.++ (re.+ (re.union (str.to.re "GG") (str.to.re "H"))) (re.++ (re.union (re.+ (str.to.re "DDD")) (re.union (str.to.re "EEE") (str.to.re "FFF"))) (re.++ (re.+ (re.union (str.to.re "B") (str.to.re "CC"))) (re.++ (re.union (re.* (str.to.re "zz")) (re.+ (str.to.re "A"))) (re.++ (re.+ (re.union (str.to.re "x") (str.to.re "yyy"))) (re.++ (re.+ (re.union (str.to.re "vv") (str.to.re "www"))) (re.++ (re.* (re.union (str.to.re "t") (str.to.re "u"))) (re.++ (re.+ (re.union (str.to.re "rr") (str.to.re "sss"))) (re.++ (re.+ (re.union (str.to.re "ppp") (str.to.re "qq"))) (re.++ (re.+ (re.union (str.to.re "n") (str.to.re "ooo"))) (re.++ (re.union (re.* (str.to.re "k")) (re.union (str.to.re "l") (str.to.re "m"))) (re.++ (re.union (re.+ (str.to.re "iii")) (re.+ (str.to.re "j"))) (re.++ (re.union (re.+ (str.to.re "ggg")) (re.* (str.to.re "hh"))) (re.++ (re.* (re.+ (str.to.re "ff"))) (re.++ (re.* (re.+ (str.to.re "e"))) (re.++ (re.union (re.+ (str.to.re "b")) (re.union (str.to.re "cc") (str.to.re "ddd"))) (re.++ (re.union (re.union (str.to.re "77") (str.to.re "88")) (re.union (str.to.re "99") (str.to.re "aaa"))) (re.++ (re.* (re.+ (str.to.re "666"))) (re.++ (re.+ (re.union (str.to.re "44") (str.to.re "5"))) (re.++ (re.+ (re.* (str.to.re "3"))) (re.++ (re.+ (re.union (str.to.re "111") (str.to.re "22"))) (re.++ (re.* (re.union (str.to.re "~~") (str.to.re "00"))) (re.++ (re.+ (re.+ (str.to.re "}"))) (re.++ (re.union (re.+ (str.to.re "```")) (re.union (str.to.re "{") (str.to.re "|||"))) (re.++ (re.union (re.union (str.to.re "]]") (str.to.re "^")) (re.* (str.to.re "__"))) (re.++ (re.union (re.+ (str.to.re "[")) (re.* (str.to.re "\\"))) (re.++ (re.* (re.union (str.to.re "??") (str.to.re "@"))) (re.++ (re.+ (re.* (str.to.re ">"))) (re.++ (re.+ (re.union (str.to.re "<<<") (str.to.re "=="))) (re.++ (re.union (re.+ (str.to.re "///")) (re.union (str.to.re "::") (str.to.re ";;"))) (re.++ (re.* (re.* (str.to.re "."))) (re.++ (re.+ (re.* (str.to.re "---"))) (re.++ (re.* (re.+ (str.to.re ",,,"))) (re.++ (re.* (re.+ (str.to.re "+"))) (re.++ (re.+ (re.union (str.to.re ")") (str.to.re "***"))) (re.++ (re.* (re.union (str.to.re "''") (str.to.re "(("))) (re.++ (re.* (re.union (str.to.re "%") (str.to.re "&&"))) (re.++ (re.* (re.+ (str.to.re "$"))) (re.++ (re.union (re.union (str.to.re "!!") (str.to.re """")) (re.* (str.to.re "#"))) (re.++ (re.union (re.+ (str.to.re "YYY")) (re.* (str.to.re "Z"))) (re.++ (re.union (re.+ (str.to.re "V")) (re.union (str.to.re "WWW") (str.to.re "XXX"))) (re.++ (re.* (re.union (str.to.re "TTT") (str.to.re "UU"))) (re.++ (re.* (re.+ (str.to.re "SS"))) (re.++ (re.union (re.union (str.to.re "PP") (str.to.re "QQ")) (re.* (str.to.re "R"))) (re.++ (re.+ (re.* (str.to.re "OOO"))) (re.++ (re.union (re.* (str.to.re "LLL")) (re.union (str.to.re "MM") (str.to.re "NN"))) (re.++ (re.* (re.+ (str.to.re "K"))) (re.++ (re.* (re.union (str.to.re "III") (str.to.re "JJJ"))) (re.++ (re.* (re.union (str.to.re "G") (str.to.re "H"))) (re.++ (re.* (re.+ (str.to.re "F"))) (re.++ (re.* (re.+ (str.to.re "EE"))) (re.++ (re.* (re.+ (str.to.re "DD"))) (re.++ (re.union (re.+ (str.to.re "BBB")) (re.+ (str.to.re "CCC"))) (re.++ (re.union (re.+ (str.to.re "yyy")) (re.union (str.to.re "zz") (str.to.re "AAA"))) (re.++ (re.+ (re.union (str.to.re "www") (str.to.re "xx"))) (re.++ (re.* (re.union (str.to.re "uuu") (str.to.re "vvv"))) (re.++ (re.union (re.+ (str.to.re "rrr")) (re.union (str.to.re "sss") (str.to.re "tt"))) (re.++ (re.union (re.union (str.to.re "nn") (str.to.re "o")) (re.union (str.to.re "p") (str.to.re "qq"))) (re.++ (re.* (re.union (str.to.re "l") (str.to.re "mmm"))) (re.++ (re.* (re.* (str.to.re "kk"))) (re.++ (re.+ (re.+ (str.to.re "jj"))) (re.++ (re.+ (re.* (str.to.re "ii"))) (re.++ (re.+ (re.union (str.to.re "gg") (str.to.re "h"))) (re.++ (re.union (re.+ (str.to.re "e")) (re.+ (str.to.re "f"))) (re.++ (re.* (re.+ (str.to.re "d"))) (re.++ (re.union (re.* (str.to.re "aa")) (re.union (str.to.re "bb") (str.to.re "ccc"))) (re.++ (re.* (re.union (str.to.re "88") (str.to.re "9"))) (re.++ (re.* (re.union (str.to.re "66") (str.to.re "777"))) (re.++ (re.union (re.union (str.to.re "33") (str.to.re "44")) (re.+ (str.to.re "555"))) (re.union (re.+ (str.to.re "000")) (re.union (str.to.re "1") (str.to.re "22")))))))))))))))))))))))))))))))))))))))))))))))))))))))))))))))))))))))))))))))))))))))))))))))))))))))))))))))))))))))))))))))))))))))))))))))))))))))))))))))
(check-sat)